
  24    0


   0  11 2 3 4 5 6 7 10 20 21 22 23 
   1   5 19 18 16 13 8 
   9   4 17 15 14 11 
   9   3 14 12 11 
   7   2 14 9 
   7   2 16 13 
   8   2 13 12 
   4   1 15 
   3   1 11 
   5   1 12 
   6   1 24
   8   1 24
   2   1 24
  10   1 24
   1   1 24
   3   1 24
   9   1 24
   1   1 24
   7   1 24
   8   1 24
   8   1 24
   2   1 24
   9   1 24
   0   0 
